(set-logic QF_S)
(declare-fun var0 () String)
(assert (str.in.re var0 (re.++ (re.+ (re.union (str.to.re "0") (str.to.re "1"))) (re.++ (re.* (re.union (str.to.re "22") (str.to.re "3"))) (re.++ (re.+ (re.union (str.to.re "444") (str.to.re "555"))) (re.++ (re.+ (re.union (str.to.re "66") (str.to.re "77"))) (re.++ (re.union (re.+ (str.to.re "88")) (re.+ (str.to.re "99"))) (re.++ (re.+ (re.+ (str.to.re "a"))) (re.++ (re.* (re.* (str.to.re "bb"))) (re.++ (re.+ (re.union (str.to.re "cc") (str.to.re "ddd"))) (re.++ (re.+ (re.union (str.to.re "e") (str.to.re "f"))) (re.++ (re.union (re.+ (str.to.re "g")) (re.+ (str.to.re "hhh"))) (re.++ (re.union (re.+ (str.to.re "ii")) (re.+ (str.to.re "jjj"))) (re.++ (re.union (re.* (str.to.re "k")) (re.* (str.to.re "l"))) (re.++ (re.union (re.union (str.to.re "m") (str.to.re "n")) (re.union (str.to.re "o") (str.to.re "p"))) (re.++ (re.* (re.+ (str.to.re "qq"))) (re.++ (re.+ (re.union (str.to.re "r") (str.to.re "ss"))) (re.++ (re.+ (re.* (str.to.re "t"))) (re.++ (re.union (re.union (str.to.re "u") (str.to.re "v")) (re.union (str.to.re "www") (str.to.re "xxx"))) (re.++ (re.+ (re.union (str.to.re "y") (str.to.re "zzz"))) (re.++ (re.* (re.* (str.to.re "AAA"))) (re.++ (re.union (re.* (str.to.re "BB")) (re.* (str.to.re "CC"))) (re.++ (re.+ (re.union (str.to.re "D") (str.to.re "EEE"))) (re.++ (re.* (re.* (str.to.re "FFF"))) (re.++ (re.+ (re.+ (str.to.re "GGG"))) (re.++ (re.+ (re.* (str.to.re "HH"))) (re.++ (re.+ (re.+ (str.to.re "I"))) (re.++ (re.union (re.union (str.to.re "J") (str.to.re "K")) (re.union (str.to.re "L") (str.to.re "MM"))) (re.++ (re.* (re.+ (str.to.re "N"))) (re.++ (re.+ (re.* (str.to.re "OO"))) (re.++ (re.* (re.+ (str.to.re "P"))) (re.++ (re.union (re.union (str.to.re "QQQ") (str.to.re "R")) (re.union (str.to.re "SSS") (str.to.re "T"))) (re.++ (re.+ (re.+ (str.to.re "UU"))) (re.++ (re.+ (re.union (str.to.re "VV") (str.to.re "W"))) (re.++ (re.* (re.* (str.to.re "XX"))) (re.++ (re.union (re.+ (str.to.re "Y")) (re.+ (str.to.re "Z"))) (re.++ (re.+ (re.* (str.to.re "!!"))) (re.++ (re.* (re.+ (str.to.re """"))) (re.++ (re.* (re.+ (str.to.re "###"))) (re.++ (re.+ (re.union (str.to.re "$") (str.to.re "%"))) (re.++ (re.+ (re.* (str.to.re "&&"))) (re.++ (re.union (re.+ (str.to.re "'")) (re.+ (str.to.re "((("))) (re.++ (re.+ (re.+ (str.to.re ")))"))) (re.++ (re.* (re.* (str.to.re "**"))) (re.++ (re.+ (re.+ (str.to.re "++"))) (re.++ (re.* (re.* (str.to.re ",,"))) (re.++ (re.union (re.* (str.to.re "--")) (re.* (str.to.re ".."))) (re.++ (re.* (re.+ (str.to.re "//"))) (re.++ (re.* (re.* (str.to.re "::"))) (re.++ (re.union (re.+ (str.to.re ";;;")) (re.+ (str.to.re "<"))) (re.++ (re.union (re.union (str.to.re "==") (str.to.re ">")) (re.union (str.to.re "??") (str.to.re "@"))) (re.++ (re.+ (re.union (str.to.re "[[[") (str.to.re "\\"))) (re.++ (re.+ (re.union (str.to.re "]]") (str.to.re "^^^"))) (re.++ (re.union (re.* (str.to.re "___")) (re.* (str.to.re "```"))) (re.++ (re.+ (re.* (str.to.re "{"))) (re.++ (re.+ (re.* (str.to.re "|||"))) (re.++ (re.+ (re.union (str.to.re "}}") (str.to.re "~~"))) (re.++ (re.union (re.+ (str.to.re "00")) (re.+ (str.to.re "111"))) (re.++ (re.* (re.* (str.to.re "2"))) (re.++ (re.* (re.union (str.to.re "3") (str.to.re "4"))) (re.++ (re.+ (re.+ (str.to.re "555"))) (re.++ (re.+ (re.union (str.to.re "66") (str.to.re "777"))) (re.++ (re.* (re.* (str.to.re "888"))) (re.++ (re.* (re.+ (str.to.re "9"))) (re.++ (re.union (re.union (str.to.re "a") (str.to.re "b")) (re.union (str.to.re "ccc") (str.to.re "d"))) (re.++ (re.union (re.* (str.to.re "ee")) (re.* (str.to.re "ff"))) (re.++ (re.* (re.union (str.to.re "gg") (str.to.re "h"))) (re.++ (re.union (re.union (str.to.re "iii") (str.to.re "j")) (re.union (str.to.re "kk") (str.to.re "l"))) (re.++ (re.+ (re.union (str.to.re "mm") (str.to.re "n"))) (re.++ (re.union (re.+ (str.to.re "oo")) (re.+ (str.to.re "pp"))) (re.++ (re.+ (re.* (str.to.re "qq"))) (re.++ (re.union (re.union (str.to.re "r") (str.to.re "ss")) (re.union (str.to.re "ttt") (str.to.re "uu"))) (re.++ (re.* (re.union (str.to.re "vvv") (str.to.re "ww"))) (re.++ (re.+ (re.+ (str.to.re "xxx"))) (re.++ (re.* (re.+ (str.to.re "yy"))) (re.++ (re.+ (re.* (str.to.re "zzz"))) (re.++ (re.* (re.union (str.to.re "AA") (str.to.re "B"))) (re.++ (re.union (re.+ (str.to.re "CCC")) (re.+ (str.to.re "DD"))) (re.++ (re.+ (re.* (str.to.re "EE"))) (re.++ (re.union (re.union (str.to.re "FF") (str.to.re "GG")) (re.union (str.to.re "HHH") (str.to.re "III"))) (re.++ (re.+ (re.+ (str.to.re "J"))) (re.++ (re.+ (re.union (str.to.re "KKK") (str.to.re "LLL"))) (re.++ (re.* (re.* (str.to.re "MMM"))) (re.++ (re.union (re.union (str.to.re "NNN") (str.to.re "OO")) (re.union (str.to.re "PPP") (str.to.re "QQ"))) (re.++ (re.* (re.+ (str.to.re "RRR"))) (re.++ (re.+ (re.* (str.to.re "SS"))) (re.++ (re.+ (re.union (str.to.re "TT") (str.to.re "UU"))) (re.++ (re.+ (re.* (str.to.re "VV"))) (re.++ (re.+ (re.union (str.to.re "W") (str.to.re "X"))) (re.++ (re.* (re.* (str.to.re "Y"))) (re.++ (re.* (re.* (str.to.re "ZZ"))) (re.++ (re.union (re.union (str.to.re "!") (str.to.re """""")) (re.union (str.to.re "##") (str.to.re "$"))) (re.++ (re.* (re.+ (str.to.re "%"))) (re.++ (re.+ (re.* (str.to.re "&"))) (re.++ (re.* (re.+ (str.to.re "''"))) (re.++ (re.union (re.* (str.to.re "(((")) (re.* (str.to.re ")"))) (re.++ (re.* (re.union (str.to.re "*") (str.to.re "+++"))) (re.++ (re.* (re.* (str.to.re ",,,"))) (re.++ (re.union (re.* (str.to.re "--")) (re.* (str.to.re "."))) (re.++ (re.+ (re.* (str.to.re "//"))) (re.++ (re.* (re.* (str.to.re ":::"))) (re.++ (re.union (re.* (str.to.re ";;;")) (re.* (str.to.re "<"))) (re.++ (re.+ (re.+ (str.to.re "=="))) (re.++ (re.* (re.union (str.to.re ">") (str.to.re "??"))) (re.++ (re.+ (re.* (str.to.re "@"))) (re.++ (re.union (re.union (str.to.re "[[") (str.to.re "\\\\\\")) (re.union (str.to.re "]") (str.to.re "^^^"))) (re.++ (re.* (re.+ (str.to.re "___"))) (re.++ (re.union (re.+ (str.to.re "``")) (re.+ (str.to.re "{"))) (re.++ (re.* (re.+ (str.to.re "|"))) (re.++ (re.+ (re.union (str.to.re "}") (str.to.re "~"))) (re.++ (re.+ (re.+ (str.to.re "0"))) (re.++ (re.+ (re.+ (str.to.re "111"))) (re.++ (re.* (re.* (str.to.re "222"))) (re.++ (re.+ (re.+ (str.to.re "3"))) (re.++ (re.+ (re.+ (str.to.re "44"))) (re.++ (re.* (re.union (str.to.re "5") (str.to.re "66"))) (re.++ (re.union (re.+ (str.to.re "77")) (re.+ (str.to.re "888"))) (re.++ (re.* (re.+ (str.to.re "99"))) (re.++ (re.union (re.* (str.to.re "a")) (re.* (str.to.re "bb"))) (re.++ (re.* (re.+ (str.to.re "ccc"))) (re.++ (re.union (re.* (str.to.re "d")) (re.* (str.to.re "e"))) (re.++ (re.union (re.union (str.to.re "f") (str.to.re "ggg")) (re.union (str.to.re "hhh") (str.to.re "iii"))) (re.++ (re.+ (re.+ (str.to.re "j"))) (re.++ (re.+ (re.+ (str.to.re "kk"))) (re.++ (re.* (re.union (str.to.re "l") (str.to.re "mm"))) (re.++ (re.+ (re.+ (str.to.re "n"))) (re.++ (re.+ (re.+ (str.to.re "o"))) (re.++ (re.union (re.union (str.to.re "pp") (str.to.re "q")) (re.union (str.to.re "r") (str.to.re "sss"))) (re.++ (re.union (re.union (str.to.re "ttt") (str.to.re "u")) (re.union (str.to.re "v") (str.to.re "www"))) (re.++ (re.* (re.union (str.to.re "xxx") (str.to.re "y"))) (re.++ (re.+ (re.union (str.to.re "z") (str.to.re "AAA"))) (re.++ (re.* (re.union (str.to.re "BB") (str.to.re "CC"))) (re.++ (re.* (re.+ (str.to.re "D"))) (re.++ (re.+ (re.+ (str.to.re "EE"))) (re.++ (re.* (re.union (str.to.re "F") (str.to.re "GG"))) (re.++ (re.union (re.* (str.to.re "HH")) (re.* (str.to.re "I"))) (re.++ (re.+ (re.* (str.to.re "JJ"))) (re.++ (re.union (re.+ (str.to.re "KKK")) (re.+ (str.to.re "LLL"))) (re.++ (re.* (re.union (str.to.re "M") (str.to.re "N"))) (re.++ (re.* (re.+ (str.to.re "O"))) (re.++ (re.+ (re.+ (str.to.re "P"))) (re.++ (re.* (re.union (str.to.re "QQQ") (str.to.re "R"))) (re.++ (re.+ (re.+ (str.to.re "S"))) (re.++ (re.union (re.+ (str.to.re "T")) (re.+ (str.to.re "UUU"))) (re.++ (re.* (re.+ (str.to.re "VVV"))) (re.++ (re.+ (re.+ (str.to.re "WW"))) (re.++ (re.+ (re.union (str.to.re "XXX") (str.to.re "YYY"))) (re.++ (re.+ (re.union (str.to.re "ZZZ") (str.to.re "!!"))) (re.++ (re.union (re.* (str.to.re """""""")) (re.* (str.to.re "#"))) (re.++ (re.+ (re.* (str.to.re "$$$"))) (re.++ (re.* (re.union (str.to.re "%%") (str.to.re "&&&"))) (re.++ (re.+ (re.+ (str.to.re "'"))) (re.++ (re.+ (re.union (str.to.re "(((") (str.to.re ")"))) (re.++ (re.+ (re.* (str.to.re "***"))) (re.++ (re.union (re.* (str.to.re "+")) (re.* (str.to.re ",,"))) (re.++ (re.+ (re.+ (str.to.re "-"))) (re.++ (re.union (re.+ (str.to.re "..")) (re.+ (str.to.re "///"))) (re.++ (re.union (re.* (str.to.re ":")) (re.* (str.to.re ";;"))) (re.++ (re.+ (re.union (str.to.re "<") (str.to.re "=="))) (re.++ (re.* (re.union (str.to.re ">>") (str.to.re "?"))) (re.++ (re.union (re.union (str.to.re "@@") (str.to.re "[[[")) (re.union (str.to.re "\\\\") (str.to.re "]]]"))) (re.++ (re.union (re.union (str.to.re "^^") (str.to.re "___")) (re.union (str.to.re "`") (str.to.re "{{"))) (re.++ (re.union (re.+ (str.to.re "|||")) (re.+ (str.to.re "}}}"))) (re.++ (re.* (re.* (str.to.re "~~~"))) (re.++ (re.* (re.* (str.to.re "000"))) (re.++ (re.+ (re.* (str.to.re "11"))) (re.++ (re.* (re.* (str.to.re "2"))) (re.++ (re.union (re.* (str.to.re "3")) (re.* (str.to.re "4"))) (re.++ (re.union (re.union (str.to.re "5") (str.to.re "666")) (re.union (str.to.re "77") (str.to.re "888"))) (re.++ (re.+ (re.* (str.to.re "99"))) (re.++ (re.union (re.* (str.to.re "aaa")) (re.* (str.to.re "b"))) (re.++ (re.union (re.* (str.to.re "ccc")) (re.* (str.to.re "dd"))) (re.++ (re.* (re.union (str.to.re "e") (str.to.re "f"))) (re.++ (re.* (re.+ (str.to.re "ggg"))) (re.++ (re.* (re.+ (str.to.re "h"))) (re.++ (re.+ (re.* (str.to.re "iii"))) (re.++ (re.* (re.+ (str.to.re "jjj"))) (re.union (re.* (str.to.re "kkk")) (re.* (str.to.re "ll"))))))))))))))))))))))))))))))))))))))))))))))))))))))))))))))))))))))))))))))))))))))))))))))))))))))))))))))))))))))))))))))))))))))))))))))))))))))))))))))))))))))))))))))))))))
(check-sat)